
Gurobi 9.0.2 (linux64) logging started Mon May 25 08:58:04 2020

Changed value of parameter LogFile to gurobi_logs/2020-05-25_08:58:04-rproblem8_implicit_mode=implicit_implicit_shifts.log
   Prev:   Default: 
Parameter MIPFocus unchanged
   Value: 0  Min: 0  Max: 3  Default: 0
Parameter SolutionLimit unchanged
   Value: 2000000000  Min: 1  Max: 2000000000  Default: 2000000000
Parameter LogToConsole unchanged
   Value: 1  Min: 0  Max: 1  Default: 1
Changed value of parameter TimeLimit to 18000.0
   Prev: inf  Min: 0.0  Max: inf  Default: inf
Gurobi Optimizer version 9.0.2 build v9.0.2rc0 (linux64)
Optimize a model with 62878 rows, 103739 columns and 3347925 nonzeros
Model fingerprint: 0x07a102b1
Variable types: 41 continuous, 103698 integer (103194 binary)
Coefficient statistics:
  Matrix range     [3e-01, 1e+03]
  Objective range  [1e+00, 1e+00]
  Bounds range     [1e+00, 1e+00]
  RHS range        [1e+00, 1e+03]
Presolve removed 3326 rows and 27883 columns (presolve time = 6s) ...
Presolve removed 3342 rows and 28117 columns
Presolve time: 8.86s
Presolved: 59536 rows, 75622 columns, 3263755 nonzeros
Variable types: 1 continuous, 75621 integer (75608 binary)

Deterministic concurrent LP optimizer: primal simplex, dual simplex, and barrier
Showing barrier log only...

Root barrier log...

Ordering time: 4.02s

Barrier statistics:
 Dense cols : 2095
 AA' NZ     : 3.231e+06
 Factor NZ  : 5.762e+06 (roughly 110 MBytes of memory)
 Factor Ops : 3.444e+09 (less than 1 second per iteration)
 Threads    : 21

                  Objective                Residual
Iter       Primal          Dual         Primal    Dual     Compl     Time
   0   7.05193110e+06  1.43987075e+05  5.61e+05 1.94e+00  8.37e+02    26s
   1   4.66252429e+05  1.76913519e+06  3.52e+04 1.70e+00  6.23e+01    26s
   2   1.05764896e+05  8.19899284e+05  6.96e+03 4.72e-05  1.17e+01    27s
   3   1.86877400e+04  2.28240700e+05  1.29e+03 1.17e-05  2.31e+00    27s
   4   5.30768075e+03  7.45519987e+04  3.85e+02 4.22e-06  6.88e-01    27s
   5   1.84623540e+03  4.36878130e+04  1.13e+02 2.34e-06  3.02e-01    28s
   6   7.13363618e+02  2.14355799e+04  2.35e+01 1.08e-06  1.20e-01    28s
   7   4.78043014e+02  1.04765641e+04  6.07e+00 4.93e-07  5.25e-02    28s
   8   4.18247931e+02  3.62485145e+03  1.03e+00 1.46e-07  1.59e-02    28s
   9   4.32265295e+02  1.86313609e+03  4.23e-01 6.33e-08  7.02e-03    29s
  10   4.54339857e+02  1.36942227e+03  2.08e-01 4.07e-08  4.46e-03    29s
  11   4.74073000e+02  9.64446231e+02  1.16e-01 2.16e-08  2.39e-03    29s
  12   5.00312112e+02  7.96968211e+02  4.84e-02 1.41e-08  1.44e-03    30s
  13   5.17741059e+02  6.51984121e+02  1.44e-02 1.14e-08  6.50e-04    30s
  14   5.28111311e+02  5.52161861e+02  1.19e-03 3.04e-07  1.16e-04    30s
  15   5.29698146e+02  5.34201460e+02  3.50e-04 6.89e-07  2.18e-05    31s
  16   5.30523535e+02  5.33193104e+02  1.08e-05 1.27e-06  1.28e-05    31s
  17   5.30575126e+02  5.30657873e+02  6.10e-07 1.11e-07  3.98e-07    31s
  18   5.30580882e+02  5.30654698e+02  4.69e-08 1.21e-06  3.55e-07    32s
  19   5.30581356e+02  5.30583211e+02  4.88e-10 5.05e-07  8.92e-09    32s
  20   5.30581361e+02  5.30581361e+02  1.10e-11 2.15e-11  5.77e-14    32s

Barrier solved model in 20 iterations and 32.12 seconds
Optimal objective 5.30581361e+02


Root crossover log...

     538 DPushes remaining with DInf 0.0000000e+00                33s
       0 DPushes remaining with DInf 0.0000000e+00                33s

    7695 PPushes remaining with PInf 0.0000000e+00                33s
    1128 PPushes remaining with PInf 0.0000000e+00                38s
       0 PPushes remaining with PInf 0.0000000e+00                40s

  Push phase complete: Pinf 0.0000000e+00, Dinf 1.9691249e-11     40s


Root simplex log...

Iteration    Objective       Primal Inf.    Dual Inf.      Time
    8232    5.3058136e+02   0.000000e+00   0.000000e+00     40s
    8232    5.3058136e+02   0.000000e+00   0.000000e+00     40s
Concurrent spin time: 11.85s (can be avoided by choosing Method=3)

Solved with barrier

Root relaxation: objective 5.305814e+02, 8232 iterations, 28.64 seconds
Total elapsed time = 59.18s
Total elapsed time = 71.42s
Total elapsed time = 75.43s

    Nodes    |    Current Node    |     Objective Bounds      |     Work
 Expl Unexpl |  Obj  Depth IntInf | Incumbent    BestBd   Gap | It/Node Time

     0     0  530.58136    0  279          -  530.58136      -     -   90s
     0     0  530.58136    0  419          -  530.58136      -     -  117s
     0     0  530.58136    0  519          -  530.58136      -     -  133s
     0     0  529.91469    0  295          -  529.91469      -     -  229s
     0     0  529.91469    0  516          -  529.91469      -     -  244s
     0     0  529.91469    0  502          -  529.91469      -     -  277s
     0     0  529.91469    0  582          -  529.91469      -     -  295s
     0     0  529.91469    0  199          -  529.91469      -     -  369s
     0     0  529.91469    0  412          -  529.91469      -     -  385s
     0     0  529.91469    0  267          -  529.91469      -     -  460s
     0     0  529.91469    0  420          -  529.91469      -     -  478s
     0     0  529.91469    0  311          -  529.91469      -     -  547s
     0     0  529.91469    0  311          -  529.91469      -     -  564s
     0     2  529.91469    0  279          -  529.91469      -     -  718s
     1     4  529.91469    1  261          -  529.91469      -  3520  762s
     3     8  529.91469    2  321          -  529.91469      -  2508  807s
     7    16  529.91469    3  456          -  529.91469      -  2248  907s
    15    32  529.91469    4  525          -  529.91469      -  3081 1066s
    31    55  529.91469    5  556          -  529.91469      -  6175 1164s
    55    79  529.91469    6  440          -  529.91469      -  4917 1203s
    79   103  529.91469    7  427          -  529.91469      -  4095 1236s
   103   127  529.91469    7  419          -  529.91469      -  3552 1258s
   127   157  529.91469    8  405          -  529.91469      -  3095 1284s
   157   193  529.91469    9  387          -  529.91469      -  2752 1317s
   193   293  529.91469   10  488          -  529.91469      -  2486 1377s
   294   461  529.91469   11  294          -  529.91469      -  2034 1547s
   462  1039  529.20041   17  334          -  529.91469      -  1770 1740s
  1041  2344  529.91469   33  291          -  529.91469      -  1324 2009s
  2348  4136  529.41469   42  248          -  529.91469      -   951 2288s
  4141  6559  528.55755   93  257          -  529.91469      -   764 2542s
  6590  8830  528.05755  137  241          -  529.91469      -   602 2748s
  8952 10821  526.35097  223  417          -  529.91469      -   519 2924s
 11069 12751  526.41469  305  257          -  529.91469      -   471 3102s
H11369 12721                     502.1839995  529.91469  5.52%   464 3102s
 13174 12681  529.91469   48  311  502.18400  529.91469  5.52%   443 4694s
 13176 12682  527.91469  117 11348  502.18400  529.91469  5.52%   443 5163s
 13177 12683  529.81265   52 2027  502.18400  529.91469  5.52%   443 5502s
 13178 12684  526.98612  140 15924  502.18400  529.91469  5.52%   443 5673s
 13179 12684  521.91470   59 5820  502.18400  529.91469  5.52%   442 6119s
 13180 12685  529.17660  138 11183  502.18400  529.91469  5.52%   442 6232s
 13181 12686  529.91469   12 7212  502.18400  529.91469  5.52%   442 6617s
 13182 12686  528.12898   54 15072  502.18400  529.91469  5.52%   442 6695s
 13183 12687  527.91469  414 7064  502.18400  529.91469  5.52%   442 7251s
 13184 12688  528.48612   22 11194  502.18400  529.91469  5.52%   442 7323s
 13185 12688  514.33360  372 7322  502.18400  529.91469  5.52%   442 7770s
 13186 12689  528.96827   52 12880  502.18400  529.91469  5.52%   442 7992s
 13187 12690  527.49803  188 3665  502.18400  529.91469  5.52%   442 8377s
 13188 12690  527.54593  141 14387  502.18400  529.91469  5.52%   442 8431s
 13189 12691  527.78969  397 3444  502.18400  529.91469  5.52%   442 8829s
 13190 12692  527.03969  240 4418  502.18400  529.91469  5.52%   442 8885s
 13191 12692  526.60517  100 6100  502.18400  529.91469  5.52%   442 9275s
 13192 12693  529.20041   20 7940  502.18400  529.91469  5.52%   442 9399s
 13193 12694  525.34684  484 3271  502.18400  529.91469  5.52%   442 9755s
 13194 12694  528.21231  178 8383  502.18400  529.91469  5.52%   442 9801s
 13195 12695  527.55755  197 4252  502.18400  529.91469  5.52%   442 10222s
 13196 12696  527.93850  437 4252  502.18400  529.91469  5.52%   442 10300s
 13197 12696  526.02737  294 4252  502.18400  529.91469  5.52%   442 11357s
 13198 12700  529.91469   12 2280  502.18400  529.91469  5.52%  70.4 11469s
 13200 12703  529.91469   13 2096  502.18400  529.91469  5.52%  70.6 11483s
 13204 12710  529.91469   14  996  502.18400  529.91469  5.52%  70.8 11517s
 13212 12723  529.91469   15 1658  502.18400  529.91469  5.52%  72.3 11556s
 13228 12742  529.91469   16 1051  502.18400  529.91469  5.52%  74.3 11585s
 13252 12758  529.91469   17  894  502.18400  529.91469  5.52%  76.3 11599s
 13276 12774  529.91469   17 6595  502.18400  529.91469  5.52%  78.4 11642s
 13300 12790  529.91469   18  448  502.18400  529.91469  5.52%  82.5 11653s
 13324 12816  529.91469   18 1000  502.18400  529.91469  5.52%  83.8 11667s
 13358 12843  529.91469   19  894  502.18400  529.91469  5.52%  86.0 11808s
 13396 12915  529.91469   20  835  502.18400  529.91469  5.52%  91.2 11845s
 13481 13065  529.91469   21  827  502.18400  529.91469  5.52%  97.9 12000s
 13660 13335  529.91469   23  857  502.18400  529.91469  5.52%   117 12225s
 13993 13531  529.91469   26 2631  502.18400  529.91469  5.52%   156 12675s
 14300 13864  529.91469   32 2993  502.18400  529.91469  5.52%   229 13590s
 14749 14627  529.91469   51 3655  502.18400  529.91469  5.52%   351 14688s
 15736 15336  529.91469   61 9094  502.18400  529.91469  5.52%   498 15609s
 16877 16385 infeasible   63       502.18400  529.91469  5.52%   579 16517s
 18595 19172  525.57010   35 12083  502.18400  529.91469  5.52%   643 17506s
 22769 18374  529.15486   88 17705  502.18400  529.91469  5.52%   694 18000s

Cutting planes:
  Gomory: 1
  Cover: 946
  Implied bound: 20
  Clique: 178
  MIR: 678
  StrongCG: 749
  Flow cover: 1079
  GUB cover: 134
  Zero half: 40
  RLT: 29
  Relax-and-lift: 32

Explored 23510 nodes (23209609 simplex iterations) in 18000.26 seconds
Thread count was 24 (of 48 available processors)

Solution count 1: 502.184 

Time limit reached
Best objective 5.021839995458e+02, best bound 5.299146945255e+02, gap 5.5220%
